12 16 6 10
11 19 3 15 17 4 16 9 3 19 1 9 2 15 13 18 
9.99 1.6 8.63 1.21 1.25 10.26 15.65 8.95 4.65 6.93 3.17 4.56 11.61 14.88 5.69 11.06 
11.31 14.96 7.96 0.86 15.79 2.48 15.89 6.08 14.78 5.94 1.9 11.47 1.94 4.97 13.82 11.61 
15.34 15.45 1.3 15.53 11.9 7.88 6.77 6.64 1.27 13.32 3.29 1.27 3.47 10.42 12.52 9.83 
12.42 8.3 7.87 5.15 13.85 3.5 15.74 9.47 0.45 9.81 10.63 10 12.21 8.56 7.02 8.87 
3.54 1.82 11.39 8.66 15.48 13.52 8.07 5.71 12.53 7.49 4.72 2.71 15.11 10.13 12.12 3.63 
6.59 15.21 2.15 0.73 4.82 13.19 7.34 2.28 5.71 3.66 0.51 9.76 10.79 9.19 8.68 7.14 
8 8 8 8 8 8 8 8 8 8 8 8 8 8 8 8 
3.1 10.32 15.78 14.51 2.3 1.9 2.81 0.65 5.18 9.13 2.61 6.95 0.97 8.22 7.44 11.7 
9.62 11.55 6.98 5.84 14.38 6.21 8.82 4.29 2.33 8.29 6.12 15.72 0.77 8.04 1 4.35 
6.06 3.35 0.92 1.31 10.88 4.64 13.37 11.6 12.14 1.15 15.77 1.77 8.88 8.53 11.73 1.21 
11.73 14.67 11.46 2.37 11.1 15.02 11.52 12.76 1.38 4.49 14.56 0.67 12.7 10.64 14.92 6.16 
11.34 1.97 10.53 13.99 1.86 1.37 2.36 3.67 15.45 5.29 12.47 0.82 7.18 11.88 2.24 8.64 
1 1 1 1 1 1 1 1 1 1 1 1 1 1 1 1 
1 1 1 1 1 1 1 1 1 1 1 1 1 1 1 1 
1 1 1 1 1 1 1 1 1 1 1 1 1 1 1 1 
1 1 1 1 1 1 1 1 1 1 1 1 1 1 1 1 
1 1 1 1 1 1 1 1 1 1 1 1 1 1 1 1 
1 1 1 1 1 1 1 1 1 1 1 1 1 1 1 1 
1 1 1 1 1 1 1 1 1 1 1 1 1 1 1 1 
1 1 1 1 1 1 1 1 1 1 1 1 1 1 1 1 
1 1 1 1 1 1 1 1 1 1 1 1 1 1 1 1 
1 1 1 1 1 1 1 1 1 1 1 1 1 1 1 1 
1 1 1 1 1 1 1 1 1 1 1 1 1 1 1 1 
1 1 1 1 1 1 1 1 1 1 1 1 1 1 1 1 
0.01 0.01 0.01 0.01 0.01 0.01 0.01 0.01 0.01 0.01 0.01 0.01 0.01 0.01 0.01 0.01 
0.02 0.02 0.02 0.02 0.02 0.02 0.02 0.02 0.02 0.02 0.02 0.02 0.02 0.02 0.02 0.02 
0.03 0.03 0.03 0.03 0.03 0.03 0.03 0.03 0.03 0.03 0.03 0.03 0.03 0.03 0.03 0.03 
0.04 0.04 0.04 0.04 0.04 0.04 0.04 0.04 0.04 0.04 0.04 0.04 0.04 0.04 0.04 0.04 
0.05 0.05 0.05 0.05 0.05 0.05 0.05 0.05 0.05 0.05 0.05 0.05 0.05 0.05 0.05 0.05 
0.06 0.06 0.06 0.06 0.06 0.06 0.06 0.06 0.06 0.06 0.06 0.06 0.06 0.06 0.06 0.06 
0.07 0.07 0.07 0.07 0.07 0.07 0.07 0.07 0.07 0.07 0.07 0.07 0.07 0.07 0.07 0.07 
0.2 0.2 0.2 0.2 0.2 0.2 0.2 0.2 0.2 0.2 0.2 0.2 0.2 0.2 0.2 0.2 
0.4 0.4 0.4 0.4 0.4 0.4 0.4 0.4 0.4 0.4 0.4 0.4 0.4 0.4 0.4 0.4 
0.6 0.6 0.6 0.6 0.6 0.6 0.6 0.6 0.6 0.6 0.6 0.6 0.6 0.6 0.6 0.6 
0.8 0.8 0.8 0.8 0.8 0.8 0.8 0.8 0.8 0.8 0.8 0.8 0.8 0.8 0.8 0.8 
1 1 1 1 1 1 1 1 1 1 1 1 1 1 1 1 
